\ENCODING=ISO-8859-1
\Problem name: IloCplex

Maximize
 obj: 4.33333333333333 L(34) + 4.33333333333333 L(35) + 4.33333333333333 L(36)
      + 4.33333333333333 L(37) + 4.33333333333333 L(38)
      + 4.33333333333333 L(39) + 4.33333333333333 L(40)
      + 4.33333333333333 L(41) + 4.33333333333333 L(42)
      + 4.33333333333333 L(43) + 4.33333333333333 L(44)
      + 4.33333333333333 L(45) + 4.33333333333333 L(46)
      + 4.33333333333333 L(47) + 4.33333333333333 L(48)
      + 4.33333333333333 L(49) + 4.33333333333333 L(50) - 5 Y(0) - 2.5 Y(1)
      - 3.75 Y(2) - 2.5 Y(3) - 3.75 Y(4) - 2.5 Y(5) - 2.5 Y(7) - 5 Y(6)
      - 3.75 Y(8) - 2.5 Y(9) - 3.75 Y(10) - 3.75 Y(11) - 1.25 Y(12)
      + 2.83333333333333 S(0) + 2.36363636363636 L(85) + 2.36363636363636 L(86)
      + 2.36363636363636 L(87) + 2.36363636363636 L(88)
      + 2.36363636363636 L(89) + 2.36363636363636 L(90)
      + 2.36363636363636 L(91) + 2.36363636363636 L(92)
      + 2.36363636363636 L(93) + 2.36363636363636 L(94)
      + 2.36363636363636 L(95) + 2.36363636363636 L(96)
      + 2.36363636363636 L(97) + 2.36363636363636 L(98)
      + 2.36363636363636 L(99) + 2.36363636363636 L(100)
      + 2.36363636363636 L(101) - 3.09090909090909 Y(13)
      - 1.54545454545455 Y(14) - 2.31818181818182 Y(15)
      - 1.54545454545455 Y(16) - 2.31818181818182 Y(17)
      - 1.54545454545455 Y(18) - 1.54545454545455 Y(20)
      - 3.09090909090909 Y(19) - 2.31818181818182 Y(21)
      - 1.54545454545455 Y(22) - 2.31818181818182 Y(23)
      - 2.31818181818182 Y(24) - 0.772727272727273 Y(25)
      + 3.09090909090909 S(1) + 1.73333333333333 L(136)
      + 1.73333333333333 L(137) + 1.73333333333333 L(138)
      + 1.73333333333333 L(139) + 1.73333333333333 L(140)
      + 1.73333333333333 L(141) + 1.73333333333333 L(142)
      + 1.73333333333333 L(143) + 1.73333333333333 L(144)
      + 1.73333333333333 L(145) + 1.73333333333333 L(146)
      + 1.73333333333333 L(147) + 1.73333333333333 L(148)
      + 1.73333333333333 L(149) + 1.73333333333333 L(150)
      + 1.73333333333333 L(151) + 1.73333333333333 L(152)
      - 2.53333333333333 Y(26) - 1.26666666666667 Y(27) - 1.9 Y(28)
      - 1.26666666666667 Y(29) - 1.9 Y(30) - 1.26666666666667 Y(31)
      - 1.26666666666667 Y(33) - 2.53333333333333 Y(32) - 1.9 Y(34)
      - 1.26666666666667 Y(35) - 1.9 Y(36) - 1.9 Y(37)
      - 0.633333333333333 Y(38) + 3.4 S(2) + 1.44444444444444 L(187)
      + 1.44444444444444 L(188) + 1.44444444444444 L(189)
      + 1.44444444444444 L(190) + 1.44444444444444 L(191)
      + 1.44444444444444 L(192) + 1.44444444444444 L(193)
      + 1.44444444444444 L(194) + 1.44444444444444 L(195)
      + 1.44444444444444 L(196) + 1.44444444444444 L(197)
      + 1.44444444444444 L(198) + 1.44444444444444 L(199)
      + 1.44444444444444 L(200) + 1.44444444444444 L(201)
      + 1.44444444444444 L(202) + 1.44444444444444 L(203)
      - 2.33333333333333 Y(39) - 1.16666666666667 Y(40) - 1.75 Y(41)
      - 1.16666666666667 Y(42) - 1.75 Y(43) - 1.16666666666667 Y(44)
      - 1.16666666666667 Y(46) - 2.33333333333333 Y(45) - 1.75 Y(47)
      - 1.16666666666667 Y(48) - 1.75 Y(49) - 1.75 Y(50)
      - 0.583333333333333 Y(51) + 3.77777777777778 S(3) + 1.3 L(238)
      + 1.3 L(239) + 1.3 L(240) + 1.3 L(241) + 1.3 L(242) + 1.3 L(243)
      + 1.3 L(244) + 1.3 L(245) + 1.3 L(246) + 1.3 L(247) + 1.3 L(248)
      + 1.3 L(249) + 1.3 L(250) + 1.3 L(251) + 1.3 L(252) + 1.3 L(253)
      + 1.3 L(254) - 2.3 Y(52) - 1.15 Y(53) - 1.725 Y(54) - 1.15 Y(55)
      - 1.725 Y(56) - 1.15 Y(57) - 1.15 Y(59) - 2.3 Y(58) - 1.725 Y(60)
      - 1.15 Y(61) - 1.725 Y(62) - 1.725 Y(63) - 0.575 Y(64) + 4.25 S(4)
      + 1.23809523809524 L(289) + 1.23809523809524 L(290)
      + 1.23809523809524 L(291) + 1.23809523809524 L(292)
      + 1.23809523809524 L(293) + 1.23809523809524 L(294)
      + 1.23809523809524 L(295) + 1.23809523809524 L(296)
      + 1.23809523809524 L(297) + 1.23809523809524 L(298)
      + 1.23809523809524 L(299) + 1.23809523809524 L(300)
      + 1.23809523809524 L(301) + 1.23809523809524 L(302)
      + 1.23809523809524 L(303) + 1.23809523809524 L(304)
      + 1.23809523809524 L(305) - 2.38095238095238 Y(65)
      - 1.19047619047619 Y(66) - 1.78571428571429 Y(67)
      - 1.19047619047619 Y(68) - 1.78571428571429 Y(69)
      - 1.19047619047619 Y(70) - 1.19047619047619 Y(72)
      - 2.38095238095238 Y(71) - 1.78571428571429 Y(73)
      - 1.19047619047619 Y(74) - 1.78571428571429 Y(75)
      - 1.78571428571429 Y(76) - 0.595238095238095 Y(77)
      + 4.85714285714285 S(5) + x187
Subject To
 c1:   S(0) + S(1) + S(2) + S(3) + S(4) + S(5)  = 1
 c2:   Y(0) - S(0) <= 0
 c3:   Y(1) - S(0) <= 0
 c4:   Y(2) - S(0) <= 0
 c5:   Y(3) - S(0) <= 0
 c6:   Y(4) - S(0) <= 0
 c7:   Y(5) - S(0) <= 0
 c8:   Y(6) - S(0) <= 0
 c9:   Y(7) - S(0) <= 0
 c10:  Y(8) - S(0) <= 0
 c11:  Y(9) - S(0) <= 0
 c12:  Y(10) - S(0) <= 0
 c13:  Y(11) - S(0) <= 0
 c14:  Y(12) - S(0) <= 0
 c15:  Y(13) - S(1) <= 0
 c16:  Y(14) - S(1) <= 0
 c17:  Y(15) - S(1) <= 0
 c18:  Y(16) - S(1) <= 0
 c19:  Y(17) - S(1) <= 0
 c20:  Y(18) - S(1) <= 0
 c21:  Y(19) - S(1) <= 0
 c22:  Y(20) - S(1) <= 0
 c23:  Y(21) - S(1) <= 0
 c24:  Y(22) - S(1) <= 0
 c25:  Y(23) - S(1) <= 0
 c26:  Y(24) - S(1) <= 0
 c27:  Y(25) - S(1) <= 0
 c28:  Y(26) - S(2) <= 0
 c29:  Y(27) - S(2) <= 0
 c30:  Y(28) - S(2) <= 0
 c31:  Y(29) - S(2) <= 0
 c32:  Y(30) - S(2) <= 0
 c33:  Y(31) - S(2) <= 0
 c34:  Y(32) - S(2) <= 0
 c35:  Y(33) - S(2) <= 0
 c36:  Y(34) - S(2) <= 0
 c37:  Y(35) - S(2) <= 0
 c38:  Y(36) - S(2) <= 0
 c39:  Y(37) - S(2) <= 0
 c40:  Y(38) - S(2) <= 0
 c41:  Y(39) - S(3) <= 0
 c42:  Y(40) - S(3) <= 0
 c43:  Y(41) - S(3) <= 0
 c44:  Y(42) - S(3) <= 0
 c45:  Y(43) - S(3) <= 0
 c46:  Y(44) - S(3) <= 0
 c47:  Y(45) - S(3) <= 0
 c48:  Y(46) - S(3) <= 0
 c49:  Y(47) - S(3) <= 0
 c50:  Y(48) - S(3) <= 0
 c51:  Y(49) - S(3) <= 0
 c52:  Y(50) - S(3) <= 0
 c53:  Y(51) - S(3) <= 0
 c54:  Y(52) - S(4) <= 0
 c55:  Y(53) - S(4) <= 0
 c56:  Y(54) - S(4) <= 0
 c57:  Y(55) - S(4) <= 0
 c58:  Y(56) - S(4) <= 0
 c59:  Y(57) - S(4) <= 0
 c60:  Y(58) - S(4) <= 0
 c61:  Y(59) - S(4) <= 0
 c62:  Y(60) - S(4) <= 0
 c63:  Y(61) - S(4) <= 0
 c64:  Y(62) - S(4) <= 0
 c65:  Y(63) - S(4) <= 0
 c66:  Y(64) - S(4) <= 0
 c67:  Y(65) - S(5) <= 0
 c68:  Y(66) - S(5) <= 0
 c69:  Y(67) - S(5) <= 0
 c70:  Y(68) - S(5) <= 0
 c71:  Y(69) - S(5) <= 0
 c72:  Y(70) - S(5) <= 0
 c73:  Y(71) - S(5) <= 0
 c74:  Y(72) - S(5) <= 0
 c75:  Y(73) - S(5) <= 0
 c76:  Y(74) - S(5) <= 0
 c77:  Y(75) - S(5) <= 0
 c78:  Y(76) - S(5) <= 0
 c79:  Y(77) - S(5) <= 0
 c80:  L(34) - S(0) <= 0
 c81:  L(35) - S(0) <= 0
 c82:  L(36) - S(0) <= 0
 c83:  L(37) - S(0) <= 0
 c84:  L(38) - S(0) <= 0
 c85:  L(39) - S(0) <= 0
 c86:  L(40) - S(0) <= 0
 c87:  L(41) - S(0) <= 0
 c88:  L(42) - S(0) <= 0
 c89:  L(43) - S(0) <= 0
 c90:  L(44) - S(0) <= 0
 c91:  L(45) - S(0) <= 0
 c92:  L(46) - S(0) <= 0
 c93:  L(47) - S(0) <= 0
 c94:  L(48) - S(0) <= 0
 c95:  L(49) - S(0) <= 0
 c96:  L(50) - S(0) <= 0
 c97:  L(85) - S(1) <= 0
 c98:  L(86) - S(1) <= 0
 c99:  L(87) - S(1) <= 0
 c100: L(88) - S(1) <= 0
 c101: L(89) - S(1) <= 0
 c102: L(90) - S(1) <= 0
 c103: L(91) - S(1) <= 0
 c104: L(92) - S(1) <= 0
 c105: L(93) - S(1) <= 0
 c106: L(94) - S(1) <= 0
 c107: L(95) - S(1) <= 0
 c108: L(96) - S(1) <= 0
 c109: L(97) - S(1) <= 0
 c110: L(98) - S(1) <= 0
 c111: L(99) - S(1) <= 0
 c112: L(100) - S(1) <= 0
 c113: L(101) - S(1) <= 0
 c114: L(136) - S(2) <= 0
 c115: L(137) - S(2) <= 0
 c116: L(138) - S(2) <= 0
 c117: L(139) - S(2) <= 0
 c118: L(140) - S(2) <= 0
 c119: L(141) - S(2) <= 0
 c120: L(142) - S(2) <= 0
 c121: L(143) - S(2) <= 0
 c122: L(144) - S(2) <= 0
 c123: L(145) - S(2) <= 0
 c124: L(146) - S(2) <= 0
 c125: L(147) - S(2) <= 0
 c126: L(148) - S(2) <= 0
 c127: L(149) - S(2) <= 0
 c128: L(150) - S(2) <= 0
 c129: L(151) - S(2) <= 0
 c130: L(152) - S(2) <= 0
 c131: L(187) - S(3) <= 0
 c132: L(188) - S(3) <= 0
 c133: L(189) - S(3) <= 0
 c134: L(190) - S(3) <= 0
 c135: L(191) - S(3) <= 0
 c136: L(192) - S(3) <= 0
 c137: L(193) - S(3) <= 0
 c138: L(194) - S(3) <= 0
 c139: L(195) - S(3) <= 0
 c140: L(196) - S(3) <= 0
 c141: L(197) - S(3) <= 0
 c142: L(198) - S(3) <= 0
 c143: L(199) - S(3) <= 0
 c144: L(200) - S(3) <= 0
 c145: L(201) - S(3) <= 0
 c146: L(202) - S(3) <= 0
 c147: L(203) - S(3) <= 0
 c148: L(238) - S(4) <= 0
 c149: L(239) - S(4) <= 0
 c150: L(240) - S(4) <= 0
 c151: L(241) - S(4) <= 0
 c152: L(242) - S(4) <= 0
 c153: L(243) - S(4) <= 0
 c154: L(244) - S(4) <= 0
 c155: L(245) - S(4) <= 0
 c156: L(246) - S(4) <= 0
 c157: L(247) - S(4) <= 0
 c158: L(248) - S(4) <= 0
 c159: L(249) - S(4) <= 0
 c160: L(250) - S(4) <= 0
 c161: L(251) - S(4) <= 0
 c162: L(252) - S(4) <= 0
 c163: L(253) - S(4) <= 0
 c164: L(254) - S(4) <= 0
 c165: L(289) - S(5) <= 0
 c166: L(290) - S(5) <= 0
 c167: L(291) - S(5) <= 0
 c168: L(292) - S(5) <= 0
 c169: L(293) - S(5) <= 0
 c170: L(294) - S(5) <= 0
 c171: L(295) - S(5) <= 0
 c172: L(296) - S(5) <= 0
 c173: L(297) - S(5) <= 0
 c174: L(298) - S(5) <= 0
 c175: L(299) - S(5) <= 0
 c176: L(300) - S(5) <= 0
 c177: L(301) - S(5) <= 0
 c178: L(302) - S(5) <= 0
 c179: L(303) - S(5) <= 0
 c180: L(304) - S(5) <= 0
 c181: L(305) - S(5) <= 0
 c182: L(34) + L(0) + L(17) <= 1
 c183: L(35) + L(1) + L(18) <= 1
 c184: L(36) + L(2) + L(19) <= 1
 c185: L(37) + L(3) + L(20) <= 1
 c186: L(38) + L(4) + L(21) <= 1
 c187: L(39) + L(5) + L(22) <= 1
 c188: L(40) + L(6) + L(23) <= 1
 c189: L(41) + L(7) + L(24) <= 1
 c190: L(42) + L(8) + L(25) <= 1
 c191: L(43) + L(9) + L(26) <= 1
 c192: L(44) + L(10) + L(27) <= 1
 c193: L(45) + L(11) + L(28) <= 1
 c194: L(46) + L(12) + L(29) <= 1
 c195: L(47) + L(13) + L(30) <= 1
 c196: L(48) + L(14) + L(31) <= 1
 c197: L(49) + L(15) + L(32) <= 1
 c198: L(50) + L(16) + L(33) <= 1
 c199: Y(0) + Y(1) + Y(2) + Y(3) + Y(4) + Y(5) + Y(7) + Y(6) + Y(8) + Y(9)
       + Y(10) + Y(11) + Y(12) - S(0)  = 0
 c200: L(34) - Y(0) + L(17)  = 0
 c201: L(35) - Y(0) + L(18)  = 0
 c202: L(36) - Y(0) + L(19)  = 0
 c203: L(37) - Y(0) + L(20)  = 0
 c204: L(38) - Y(1) + L(21)  = 0
 c205: L(39) - Y(2) + L(22)  = 0
 c206: L(40) - Y(4) + L(23)  = 0
 c207: L(41) - Y(4) + L(24)  = 0
 c208: L(42) - Y(5) + L(25)  = 0
 c209: L(43) - Y(6) + L(26)  = 0
 c210: L(44) - Y(6) + L(27)  = 0
 c211: L(45) - Y(6) + L(28)  = 0
 c212: L(46) - Y(8) + L(29)  = 0
 c213: L(47) - Y(8) + L(30)  = 0
 c214: L(48) - Y(9) + L(31)  = 0
 c215: L(49) - Y(10) + L(32)  = 0
 c216: L(50) - Y(11) + L(33)  = 0
 c217: L(34) - Y(1) + L(0)  = 0
 c218: L(35) - Y(2) + L(1)  = 0
 c219: L(36) - Y(3) + L(2)  = 0
 c220: L(37) - Y(4) + L(3)  = 0
 c221: L(38) - Y(2) + L(4)  = 0
 c222: L(39) - Y(3) + L(5)  = 0
 c223: L(40) - Y(5) + L(6)  = 0
 c224: L(41) - Y(6) + L(7)  = 0
 c225: L(42) - Y(7) + L(8)  = 0
 c226: L(43) - Y(7) + L(9)  = 0
 c227: L(44) - Y(8) + L(10)  = 0
 c228: L(45) - Y(11) + L(11)  = 0
 c229: L(46) - Y(9) + L(12)  = 0
 c230: L(47) - Y(10) + L(13)  = 0
 c231: L(48) - Y(10) + L(14)  = 0
 c232: L(49) - Y(11) + L(15)  = 0
 c233: L(50) - Y(12) + L(16)  = 0
 c234: L(85) + L(51) + L(68) <= 1
 c235: L(86) + L(52) + L(69) <= 1
 c236: L(87) + L(53) + L(70) <= 1
 c237: L(88) + L(54) + L(71) <= 1
 c238: L(89) + L(55) + L(72) <= 1
 c239: L(90) + L(56) + L(73) <= 1
 c240: L(91) + L(57) + L(74) <= 1
 c241: L(92) + L(58) + L(75) <= 1
 c242: L(93) + L(59) + L(76) <= 1
 c243: L(94) + L(60) + L(77) <= 1
 c244: L(95) + L(61) + L(78) <= 1
 c245: L(96) + L(62) + L(79) <= 1
 c246: L(97) + L(63) + L(80) <= 1
 c247: L(98) + L(64) + L(81) <= 1
 c248: L(99) + L(65) + L(82) <= 1
 c249: L(100) + L(66) + L(83) <= 1
 c250: L(101) + L(67) + L(84) <= 1
 c251: Y(13) + Y(14) + Y(15) + Y(16) + Y(17) + Y(18) + Y(20) + Y(19) + Y(21)
       + Y(22) + Y(23) + Y(24) + Y(25) - 2 S(1)  = 0
 c252: L(85) - Y(13) + L(68)  = 0
 c253: L(86) - Y(13) + L(69)  = 0
 c254: L(87) - Y(13) + L(70)  = 0
 c255: L(88) - Y(13) + L(71)  = 0
 c256: L(89) - Y(14) + L(72)  = 0
 c257: L(90) - Y(15) + L(73)  = 0
 c258: L(91) - Y(17) + L(74)  = 0
 c259: L(92) - Y(17) + L(75)  = 0
 c260: L(93) - Y(18) + L(76)  = 0
 c261: L(94) - Y(19) + L(77)  = 0
 c262: L(95) - Y(19) + L(78)  = 0
 c263: L(96) - Y(19) + L(79)  = 0
 c264: L(97) - Y(21) + L(80)  = 0
 c265: L(98) - Y(21) + L(81)  = 0
 c266: L(99) - Y(22) + L(82)  = 0
 c267: L(100) - Y(23) + L(83)  = 0
 c268: L(101) - Y(24) + L(84)  = 0
 c269: L(85) - Y(14) + L(51)  = 0
 c270: L(86) - Y(15) + L(52)  = 0
 c271: L(87) - Y(16) + L(53)  = 0
 c272: L(88) - Y(17) + L(54)  = 0
 c273: L(89) - Y(15) + L(55)  = 0
 c274: L(90) - Y(16) + L(56)  = 0
 c275: L(91) - Y(18) + L(57)  = 0
 c276: L(92) - Y(19) + L(58)  = 0
 c277: L(93) - Y(20) + L(59)  = 0
 c278: L(94) - Y(20) + L(60)  = 0
 c279: L(95) - Y(21) + L(61)  = 0
 c280: L(96) - Y(24) + L(62)  = 0
 c281: L(97) - Y(22) + L(63)  = 0
 c282: L(98) - Y(23) + L(64)  = 0
 c283: L(99) - Y(23) + L(65)  = 0
 c284: L(100) - Y(24) + L(66)  = 0
 c285: L(101) - Y(25) + L(67)  = 0
 c286: L(136) + L(102) + L(119) <= 1
 c287: L(137) + L(103) + L(120) <= 1
 c288: L(138) + L(104) + L(121) <= 1
 c289: L(139) + L(105) + L(122) <= 1
 c290: L(140) + L(106) + L(123) <= 1
 c291: L(141) + L(107) + L(124) <= 1
 c292: L(142) + L(108) + L(125) <= 1
 c293: L(143) + L(109) + L(126) <= 1
 c294: L(144) + L(110) + L(127) <= 1
 c295: L(145) + L(111) + L(128) <= 1
 c296: L(146) + L(112) + L(129) <= 1
 c297: L(147) + L(113) + L(130) <= 1
 c298: L(148) + L(114) + L(131) <= 1
 c299: L(149) + L(115) + L(132) <= 1
 c300: L(150) + L(116) + L(133) <= 1
 c301: L(151) + L(117) + L(134) <= 1
 c302: L(152) + L(118) + L(135) <= 1
 c303: Y(26) + Y(27) + Y(28) + Y(29) + Y(30) + Y(31) + Y(33) + Y(32) + Y(34)
       + Y(35) + Y(36) + Y(37) + Y(38) - 3 S(2)  = 0
 c304: L(136) - Y(26) + L(119)  = 0
 c305: L(137) - Y(26) + L(120)  = 0
 c306: L(138) - Y(26) + L(121)  = 0
 c307: L(139) - Y(26) + L(122)  = 0
 c308: L(140) - Y(27) + L(123)  = 0
 c309: L(141) - Y(28) + L(124)  = 0
 c310: L(142) - Y(30) + L(125)  = 0
 c311: L(143) - Y(30) + L(126)  = 0
 c312: L(144) - Y(31) + L(127)  = 0
 c313: L(145) - Y(32) + L(128)  = 0
 c314: L(146) - Y(32) + L(129)  = 0
 c315: L(147) - Y(32) + L(130)  = 0
 c316: L(148) - Y(34) + L(131)  = 0
 c317: L(149) - Y(34) + L(132)  = 0
 c318: L(150) - Y(35) + L(133)  = 0
 c319: L(151) - Y(36) + L(134)  = 0
 c320: L(152) - Y(37) + L(135)  = 0
 c321: L(136) - Y(27) + L(102)  = 0
 c322: L(137) - Y(28) + L(103)  = 0
 c323: L(138) - Y(29) + L(104)  = 0
 c324: L(139) - Y(30) + L(105)  = 0
 c325: L(140) - Y(28) + L(106)  = 0
 c326: L(141) - Y(29) + L(107)  = 0
 c327: L(142) - Y(31) + L(108)  = 0
 c328: L(143) - Y(32) + L(109)  = 0
 c329: L(144) - Y(33) + L(110)  = 0
 c330: L(145) - Y(33) + L(111)  = 0
 c331: L(146) - Y(34) + L(112)  = 0
 c332: L(147) - Y(37) + L(113)  = 0
 c333: L(148) - Y(35) + L(114)  = 0
 c334: L(149) - Y(36) + L(115)  = 0
 c335: L(150) - Y(36) + L(116)  = 0
 c336: L(151) - Y(37) + L(117)  = 0
 c337: L(152) - Y(38) + L(118)  = 0
 c338: L(187) + L(153) + L(170) <= 1
 c339: L(188) + L(154) + L(171) <= 1
 c340: L(189) + L(155) + L(172) <= 1
 c341: L(190) + L(156) + L(173) <= 1
 c342: L(191) + L(157) + L(174) <= 1
 c343: L(192) + L(158) + L(175) <= 1
 c344: L(193) + L(159) + L(176) <= 1
 c345: L(194) + L(160) + L(177) <= 1
 c346: L(195) + L(161) + L(178) <= 1
 c347: L(196) + L(162) + L(179) <= 1
 c348: L(197) + L(163) + L(180) <= 1
 c349: L(198) + L(164) + L(181) <= 1
 c350: L(199) + L(165) + L(182) <= 1
 c351: L(200) + L(166) + L(183) <= 1
 c352: L(201) + L(167) + L(184) <= 1
 c353: L(202) + L(168) + L(185) <= 1
 c354: L(203) + L(169) + L(186) <= 1
 c355: Y(39) + Y(40) + Y(41) + Y(42) + Y(43) + Y(44) + Y(46) + Y(45) + Y(47)
       + Y(48) + Y(49) + Y(50) + Y(51) - 4 S(3)  = 0
 c356: L(187) - Y(39) + L(170)  = 0
 c357: L(188) - Y(39) + L(171)  = 0
 c358: L(189) - Y(39) + L(172)  = 0
 c359: L(190) - Y(39) + L(173)  = 0
 c360: L(191) - Y(40) + L(174)  = 0
 c361: L(192) - Y(41) + L(175)  = 0
 c362: L(193) - Y(43) + L(176)  = 0
 c363: L(194) - Y(43) + L(177)  = 0
 c364: L(195) - Y(44) + L(178)  = 0
 c365: L(196) - Y(45) + L(179)  = 0
 c366: L(197) - Y(45) + L(180)  = 0
 c367: L(198) - Y(45) + L(181)  = 0
 c368: L(199) - Y(47) + L(182)  = 0
 c369: L(200) - Y(47) + L(183)  = 0
 c370: L(201) - Y(48) + L(184)  = 0
 c371: L(202) - Y(49) + L(185)  = 0
 c372: L(203) - Y(50) + L(186)  = 0
 c373: L(187) - Y(40) + L(153)  = 0
 c374: L(188) - Y(41) + L(154)  = 0
 c375: L(189) - Y(42) + L(155)  = 0
 c376: L(190) - Y(43) + L(156)  = 0
 c377: L(191) - Y(41) + L(157)  = 0
 c378: L(192) - Y(42) + L(158)  = 0
 c379: L(193) - Y(44) + L(159)  = 0
 c380: L(194) - Y(45) + L(160)  = 0
 c381: L(195) - Y(46) + L(161)  = 0
 c382: L(196) - Y(46) + L(162)  = 0
 c383: L(197) - Y(47) + L(163)  = 0
 c384: L(198) - Y(50) + L(164)  = 0
 c385: L(199) - Y(48) + L(165)  = 0
 c386: L(200) - Y(49) + L(166)  = 0
 c387: L(201) - Y(49) + L(167)  = 0
 c388: L(202) - Y(50) + L(168)  = 0
 c389: L(203) - Y(51) + L(169)  = 0
 c390: L(238) + L(204) + L(221) <= 1
 c391: L(239) + L(205) + L(222) <= 1
 c392: L(240) + L(206) + L(223) <= 1
 c393: L(241) + L(207) + L(224) <= 1
 c394: L(242) + L(208) + L(225) <= 1
 c395: L(243) + L(209) + L(226) <= 1
 c396: L(244) + L(210) + L(227) <= 1
 c397: L(245) + L(211) + L(228) <= 1
 c398: L(246) + L(212) + L(229) <= 1
 c399: L(247) + L(213) + L(230) <= 1
 c400: L(248) + L(214) + L(231) <= 1
 c401: L(249) + L(215) + L(232) <= 1
 c402: L(250) + L(216) + L(233) <= 1
 c403: L(251) + L(217) + L(234) <= 1
 c404: L(252) + L(218) + L(235) <= 1
 c405: L(253) + L(219) + L(236) <= 1
 c406: L(254) + L(220) + L(237) <= 1
 c407: Y(52) + Y(53) + Y(54) + Y(55) + Y(56) + Y(57) + Y(59) + Y(58) + Y(60)
       + Y(61) + Y(62) + Y(63) + Y(64) - 5 S(4)  = 0
 c408: L(238) - Y(52) + L(221)  = 0
 c409: L(239) - Y(52) + L(222)  = 0
 c410: L(240) - Y(52) + L(223)  = 0
 c411: L(241) - Y(52) + L(224)  = 0
 c412: L(242) - Y(53) + L(225)  = 0
 c413: L(243) - Y(54) + L(226)  = 0
 c414: L(244) - Y(56) + L(227)  = 0
 c415: L(245) - Y(56) + L(228)  = 0
 c416: L(246) - Y(57) + L(229)  = 0
 c417: L(247) - Y(58) + L(230)  = 0
 c418: L(248) - Y(58) + L(231)  = 0
 c419: L(249) - Y(58) + L(232)  = 0
 c420: L(250) - Y(60) + L(233)  = 0
 c421: L(251) - Y(60) + L(234)  = 0
 c422: L(252) - Y(61) + L(235)  = 0
 c423: L(253) - Y(62) + L(236)  = 0
 c424: L(254) - Y(63) + L(237)  = 0
 c425: L(238) - Y(53) + L(204)  = 0
 c426: L(239) - Y(54) + L(205)  = 0
 c427: L(240) - Y(55) + L(206)  = 0
 c428: L(241) - Y(56) + L(207)  = 0
 c429: L(242) - Y(54) + L(208)  = 0
 c430: L(243) - Y(55) + L(209)  = 0
 c431: L(244) - Y(57) + L(210)  = 0
 c432: L(245) - Y(58) + L(211)  = 0
 c433: L(246) - Y(59) + L(212)  = 0
 c434: L(247) - Y(59) + L(213)  = 0
 c435: L(248) - Y(60) + L(214)  = 0
 c436: L(249) - Y(63) + L(215)  = 0
 c437: L(250) - Y(61) + L(216)  = 0
 c438: L(251) - Y(62) + L(217)  = 0
 c439: L(252) - Y(62) + L(218)  = 0
 c440: L(253) - Y(63) + L(219)  = 0
 c441: L(254) - Y(64) + L(220)  = 0
 c442: L(289) + L(255) + L(272) <= 1
 c443: L(290) + L(256) + L(273) <= 1
 c444: L(291) + L(257) + L(274) <= 1
 c445: L(292) + L(258) + L(275) <= 1
 c446: L(293) + L(259) + L(276) <= 1
 c447: L(294) + L(260) + L(277) <= 1
 c448: L(295) + L(261) + L(278) <= 1
 c449: L(296) + L(262) + L(279) <= 1
 c450: L(297) + L(263) + L(280) <= 1
 c451: L(298) + L(264) + L(281) <= 1
 c452: L(299) + L(265) + L(282) <= 1
 c453: L(300) + L(266) + L(283) <= 1
 c454: L(301) + L(267) + L(284) <= 1
 c455: L(302) + L(268) + L(285) <= 1
 c456: L(303) + L(269) + L(286) <= 1
 c457: L(304) + L(270) + L(287) <= 1
 c458: L(305) + L(271) + L(288) <= 1
 c459: Y(65) + Y(66) + Y(67) + Y(68) + Y(69) + Y(70) + Y(72) + Y(71) + Y(73)
       + Y(74) + Y(75) + Y(76) + Y(77) - 6 S(5)  = 0
 c460: L(289) - Y(65) + L(272)  = 0
 c461: L(290) - Y(65) + L(273)  = 0
 c462: L(291) - Y(65) + L(274)  = 0
 c463: L(292) - Y(65) + L(275)  = 0
 c464: L(293) - Y(66) + L(276)  = 0
 c465: L(294) - Y(67) + L(277)  = 0
 c466: L(295) - Y(69) + L(278)  = 0
 c467: L(296) - Y(69) + L(279)  = 0
 c468: L(297) - Y(70) + L(280)  = 0
 c469: L(298) - Y(71) + L(281)  = 0
 c470: L(299) - Y(71) + L(282)  = 0
 c471: L(300) - Y(71) + L(283)  = 0
 c472: L(301) - Y(73) + L(284)  = 0
 c473: L(302) - Y(73) + L(285)  = 0
 c474: L(303) - Y(74) + L(286)  = 0
 c475: L(304) - Y(75) + L(287)  = 0
 c476: L(305) - Y(76) + L(288)  = 0
 c477: L(289) - Y(66) + L(255)  = 0
 c478: L(290) - Y(67) + L(256)  = 0
 c479: L(291) - Y(68) + L(257)  = 0
 c480: L(292) - Y(69) + L(258)  = 0
 c481: L(293) - Y(67) + L(259)  = 0
 c482: L(294) - Y(68) + L(260)  = 0
 c483: L(295) - Y(70) + L(261)  = 0
 c484: L(296) - Y(71) + L(262)  = 0
 c485: L(297) - Y(72) + L(263)  = 0
 c486: L(298) - Y(72) + L(264)  = 0
 c487: L(299) - Y(73) + L(265)  = 0
 c488: L(300) - Y(76) + L(266)  = 0
 c489: L(301) - Y(74) + L(267)  = 0
 c490: L(302) - Y(75) + L(268)  = 0
 c491: L(303) - Y(75) + L(269)  = 0
 c492: L(304) - Y(76) + L(270)  = 0
 c493: L(305) - Y(77) + L(271)  = 0
Bounds
 0 <= Y(0) <= 1
 0 <= Y(1) <= 1
 0 <= Y(2) <= 1
 0 <= Y(3) <= 1
 0 <= Y(4) <= 1
 0 <= Y(5) <= 1
 0 <= Y(7) <= 1
 0 <= Y(6) <= 1
 0 <= Y(8) <= 1
 0 <= Y(9) <= 1
 0 <= Y(10) <= 1
 0 <= Y(11) <= 1
 0 <= Y(12) <= 1
 0 <= S(0) <= 1
 0 <= Y(13) <= 1
 0 <= Y(14) <= 1
 0 <= Y(15) <= 1
 0 <= Y(16) <= 1
 0 <= Y(17) <= 1
 0 <= Y(18) <= 1
 0 <= Y(20) <= 1
 0 <= Y(19) <= 1
 0 <= Y(21) <= 1
 0 <= Y(22) <= 1
 0 <= Y(23) <= 1
 0 <= Y(24) <= 1
 0 <= Y(25) <= 1
 0 <= S(1) <= 1
 0 <= Y(26) <= 1
 0 <= Y(27) <= 1
 0 <= Y(28) <= 1
 0 <= Y(29) <= 1
 0 <= Y(30) <= 1
 0 <= Y(31) <= 1
 0 <= Y(33) <= 1
 0 <= Y(32) <= 1
 0 <= Y(34) <= 1
 0 <= Y(35) <= 1
 0 <= Y(36) <= 1
 0 <= Y(37) <= 1
 0 <= Y(38) <= 1
 0 <= S(2) <= 1
 0 <= Y(39) <= 1
 0 <= Y(40) <= 1
 0 <= Y(41) <= 1
 0 <= Y(42) <= 1
 0 <= Y(43) <= 1
 0 <= Y(44) <= 1
 0 <= Y(46) <= 1
 0 <= Y(45) <= 1
 0 <= Y(47) <= 1
 0 <= Y(48) <= 1
 0 <= Y(49) <= 1
 0 <= Y(50) <= 1
 0 <= Y(51) <= 1
 0 <= S(3) <= 1
 0 <= Y(52) <= 1
 0 <= Y(53) <= 1
 0 <= Y(54) <= 1
 0 <= Y(55) <= 1
 0 <= Y(56) <= 1
 0 <= Y(57) <= 1
 0 <= Y(59) <= 1
 0 <= Y(58) <= 1
 0 <= Y(60) <= 1
 0 <= Y(61) <= 1
 0 <= Y(62) <= 1
 0 <= Y(63) <= 1
 0 <= Y(64) <= 1
 0 <= S(4) <= 1
 0 <= Y(65) <= 1
 0 <= Y(66) <= 1
 0 <= Y(67) <= 1
 0 <= Y(68) <= 1
 0 <= Y(69) <= 1
 0 <= Y(70) <= 1
 0 <= Y(72) <= 1
 0 <= Y(71) <= 1
 0 <= Y(73) <= 1
 0 <= Y(74) <= 1
 0 <= Y(75) <= 1
 0 <= Y(76) <= 1
 0 <= Y(77) <= 1
 0 <= S(5) <= 1
      x187 = 0
Binaries
 Y(0)  Y(1)  Y(2)  Y(3)  Y(4)  Y(5)  Y(7)  Y(6)  Y(8)  Y(9)  Y(10)  Y(11) 
 Y(12)  S(0)  Y(13)  Y(14)  Y(15)  Y(16)  Y(17)  Y(18)  Y(20)  Y(19)  Y(21) 
 Y(22)  Y(23)  Y(24)  Y(25)  S(1)  Y(26)  Y(27)  Y(28)  Y(29)  Y(30)  Y(31) 
 Y(33)  Y(32)  Y(34)  Y(35)  Y(36)  Y(37)  Y(38)  S(2)  Y(39)  Y(40)  Y(41) 
 Y(42)  Y(43)  Y(44)  Y(46)  Y(45)  Y(47)  Y(48)  Y(49)  Y(50)  Y(51)  S(3) 
 Y(52)  Y(53)  Y(54)  Y(55)  Y(56)  Y(57)  Y(59)  Y(58)  Y(60)  Y(61)  Y(62) 
 Y(63)  Y(64)  S(4)  Y(65)  Y(66)  Y(67)  Y(68)  Y(69)  Y(70)  Y(72)  Y(71) 
 Y(73)  Y(74)  Y(75)  Y(76)  Y(77)  S(5) 
End
